90 4005
1 2 19
1 3 184
1 4 31
1 5 240
1 6 24
1 7 25
1 8 141
1 9 2
1 10 127
1 11 191
1 12 170
1 13 225
1 14 174
1 15 177
1 16 4
1 17 159
1 18 15
1 19 79
1 20 250
1 21 259
1 22 218
1 23 204
1 24 93
1 25 187
1 26 53
1 27 33
1 28 79
1 29 176
1 30 99
1 31 133
1 32 19
1 33 151
1 34 81
1 35 17
1 36 28
1 37 73
1 38 196
1 39 263
1 40 64
1 41 153
1 42 108
1 43 15
1 44 179
1 45 112
1 46 75
1 47 257
1 48 53
1 49 53
1 50 1
1 51 238
1 52 46
1 53 185
1 54 102
1 55 167
1 56 141
1 57 4
1 58 100
1 59 114
1 60 16
1 61 141
1 62 197
1 63 182
1 64 203
1 65 2
1 66 124
1 67 219
1 68 128
1 69 138
1 70 171
1 71 144
1 72 234
1 73 42
1 74 117
1 75 150
1 76 189
1 77 262
1 78 158
1 79 87
1 80 242
1 81 130
1 82 192
1 83 114
1 84 83
1 85 198
1 86 209
1 87 92
1 88 81
1 89 24
1 90 244
2 3 36
2 4 111
2 5 175
2 6 118
2 7 224
2 8 135
2 9 53
2 10 32
2 11 94
2 12 133
2 13 235
2 14 72
2 15 178
2 16 41
2 17 16
2 18 52
2 19 215
2 20 57
2 21 67
2 22 60
2 23 11
2 24 96
2 25 108
2 26 215
2 27 200
2 28 205
2 29 103
2 30 214
2 31 121
2 32 57
2 33 158
2 34 218
2 35 244
2 36 113
2 37 14
2 38 212
2 39 194
2 40 109
2 41 43
2 42 50
2 43 42
2 44 43
2 45 19
2 46 161
2 47 0
2 48 214
2 49 269
2 50 46
2 51 252
2 52 153
2 53 114
2 54 129
2 55 148
2 56 269
2 57 139
2 58 107
2 59 254
2 60 34
2 61 157
2 62 116
2 63 53
2 64 119
2 65 30
2 66 140
2 67 235
2 68 100
2 69 24
2 70 190
2 71 167
2 72 93
2 73 92
2 74 233
2 75 62
2 76 51
2 77 186
2 78 165
2 79 6
2 80 125
2 81 58
2 82 252
2 83 185
2 84 55
2 85 64
2 86 181
2 87 110
2 88 17
2 89 163
2 90 54
3 4 153
3 5 80
3 6 232
3 7 90
3 8 116
3 9 170
3 10 85
3 11 157
3 12 112
3 13 51
3 14 89
3 15 164
3 16 96
3 17 209
3 18 25
3 19 61
3 20 185
3 21 219
3 22 98
3 23 60
3 24 49
3 25 22
3 26 250
3 27 249
3 28 266
3 29 19
3 30 155
3 31 45
3 32 32
3 33 257
3 34 0
3 35 257
3 36 194
3 37 109
3 38 209
3 39 156
3 40 101
3 41 56
3 42 230
3 43 261
3 44 143
3 45 138
3 46 126
3 47 238
3 48 153
3 49 215
3 50 90
3 51 145
3 52 17
3 53 9
3 54 254
3 55 151
3 56 51
3 57 248
3 58 121
3 59 57
3 60 73
3 61 187
3 62 198
3 63 176
3 64 128
3 65 68
3 66 78
3 67 172
3 68 231
3 69 33
3 70 148
3 71 263
3 72 163
3 73 133
3 74 159
3 75 54
3 76 109
3 77 70
3 78 63
3 79 81
3 80 188
3 81 42
3 82 145
3 83 26
3 84 50
3 85 158
3 86 111
3 87 114
3 88 20
3 89 91
3 90 197
4 5 173
4 6 233
4 7 105
4 8 34
4 9 91
4 10 256
4 11 264
4 12 102
4 13 230
4 14 82
4 15 258
4 16 22
4 17 225
4 18 236
4 19 60
4 20 111
4 21 28
4 22 128
4 23 107
4 24 178
4 25 45
4 26 79
4 27 46
4 28 159
4 29 122
4 30 212
4 31 60
4 32 189
4 33 188
4 34 85
4 35 1
4 36 54
4 37 194
4 38 55
4 39 141
4 40 9
4 41 159
4 42 22
4 43 144
4 44 57
4 45 147
4 46 240
4 47 242
4 48 198
4 49 267
4 50 36
4 51 241
4 52 186
4 53 85
4 54 199
4 55 191
4 56 42
4 57 142
4 58 55
4 59 236
4 60 142
4 61 5
4 62 187
4 63 193
4 64 16
4 65 26
4 66 123
4 67 53
4 68 217
4 69 34
4 70 58
4 71 254
4 72 138
4 73 144
4 74 238
4 75 97
4 76 258
4 77 28
4 78 231
4 79 216
4 80 161
4 81 11
4 82 165
4 83 43
4 84 106
4 85 259
4 86 142
4 87 140
4 88 173
4 89 141
4 90 69
5 6 213
5 7 30
5 8 150
5 9 110
5 10 250
5 11 261
5 12 112
5 13 253
5 14 87
5 15 27
5 16 74
5 17 119
5 18 85
5 19 121
5 20 17
5 21 22
5 22 192
5 23 137
5 24 262
5 25 211
5 26 34
5 27 9
5 28 252
5 29 11
5 30 218
5 31 83
5 32 228
5 33 22
5 34 215
5 35 33
5 36 204
5 37 210
5 38 237
5 39 21
5 40 142
5 41 152
5 42 44
5 43 98
5 44 268
5 45 159
5 46 216
5 47 199
5 48 205
5 49 222
5 50 70
5 51 63
5 52 64
5 53 8
5 54 110
5 55 231
5 56 214
5 57 225
5 58 124
5 59 232
5 60 118
5 61 204
5 62 3
5 63 138
5 64 227
5 65 195
5 66 122
5 67 8
5 68 186
5 69 51
5 70 19
5 71 154
5 72 214
5 73 15
5 74 181
5 75 8
5 76 152
5 77 52
5 78 194
5 79 130
5 80 160
5 81 11
5 82 261
5 83 208
5 84 109
5 85 106
5 86 227
5 87 240
5 88 62
5 89 118
5 90 37
6 7 137
6 8 116
6 9 92
6 10 9
6 11 155
6 12 11
6 13 76
6 14 48
6 15 16
6 16 94
6 17 9
6 18 92
6 19 258
6 20 20
6 21 234
6 22 235
6 23 241
6 24 210
6 25 90
6 26 240
6 27 224
6 28 161
6 29 44
6 30 35
6 31 12
6 32 79
6 33 133
6 34 32
6 35 134
6 36 123
6 37 228
6 38 238
6 39 197
6 40 257
6 41 205
6 42 13
6 43 35
6 44 227
6 45 131
6 46 136
6 47 4
6 48 261
6 49 17
6 50 158
6 51 225
6 52 7
6 53 43
6 54 144
6 55 123
6 56 230
6 57 187
6 58 94
6 59 198
6 60 231
6 61 238
6 62 262
6 63 178
6 64 246
6 65 19
6 66 206
6 67 244
6 68 92
6 69 233
6 70 78
6 71 163
6 72 120
6 73 215
6 74 220
6 75 130
6 76 260
6 77 205
6 78 53
6 79 178
6 80 50
6 81 22
6 82 14
6 83 114
6 84 216
6 85 40
6 86 251
6 87 39
6 88 130
6 89 238
6 90 176
7 8 160
7 9 119
7 10 40
7 11 192
7 12 260
7 13 245
7 14 232
7 15 141
7 16 12
7 17 15
7 18 122
7 19 263
7 20 59
7 21 74
7 22 35
7 23 118
7 24 51
7 25 139
7 26 122
7 27 176
7 28 189
7 29 267
7 30 43
7 31 73
7 32 85
7 33 49
7 34 262
7 35 125
7 36 251
7 37 216
7 38 246
7 39 151
7 40 125
7 41 252
7 42 107
7 43 29
7 44 96
7 45 118
7 46 91
7 47 198
7 48 110
7 49 258
7 50 131
7 51 220
7 52 126
7 53 93
7 54 6
7 55 5
7 56 69
7 57 196
7 58 258
7 59 154
7 60 253
7 61 13
7 62 133
7 63 157
7 64 183
7 65 226
7 66 213
7 67 210
7 68 199
7 69 141
7 70 133
7 71 64
7 72 124
7 73 171
7 74 116
7 75 119
7 76 12
7 77 140
7 78 172
7 79 111
7 80 250
7 81 261
7 82 111
7 83 93
7 84 66
7 85 147
7 86 235
7 87 255
7 88 198
7 89 85
7 90 76
8 9 64
8 10 72
8 11 165
8 12 186
8 13 100
8 14 111
8 15 239
8 16 111
8 17 220
8 18 196
8 19 41
8 20 238
8 21 28
8 22 236
8 23 158
8 24 135
8 25 20
8 26 120
8 27 57
8 28 259
8 29 44
8 30 11
8 31 204
8 32 63
8 33 204
8 34 56
8 35 243
8 36 58
8 37 226
8 38 106
8 39 225
8 40 188
8 41 132
8 42 88
8 43 66
8 44 259
8 45 231
8 46 181
8 47 170
8 48 213
8 49 217
8 50 187
8 51 31
8 52 206
8 53 20
8 54 89
8 55 82
8 56 222
8 57 81
8 58 141
8 59 232
8 60 260
8 61 122
8 62 141
8 63 236
8 64 32
8 65 12
8 66 15
8 67 249
8 68 89
8 69 173
8 70 129
8 71 140
8 72 239
8 73 118
8 74 42
8 75 162
8 76 79
8 77 94
8 78 36
8 79 11
8 80 256
8 81 59
8 82 198
8 83 259
8 84 118
8 85 259
8 86 136
8 87 34
8 88 56
8 89 128
8 90 38
9 10 232
9 11 244
9 12 142
9 13 7
9 14 257
9 15 141
9 16 127
9 17 54
9 18 161
9 19 130
9 20 125
9 21 61
9 22 238
9 23 226
9 24 140
9 25 135
9 26 82
9 27 137
9 28 67
9 29 86
9 30 211
9 31 32
9 32 227
9 33 256
9 34 112
9 35 261
9 36 123
9 37 103
9 38 35
9 39 57
9 40 51
9 41 261
9 42 15
9 43 61
9 44 183
9 45 140
9 46 265
9 47 120
9 48 88
9 49 26
9 50 189
9 51 238
9 52 190
9 53 147
9 54 23
9 55 237
9 56 28
9 57 173
9 58 23
9 59 112
9 60 240
9 61 209
9 62 266
9 63 251
9 64 241
9 65 251
9 66 141
9 67 213
9 68 30
9 69 120
9 70 163
9 71 147
9 72 88
9 73 167
9 74 208
9 75 37
9 76 133
9 77 219
9 78 99
9 79 53
9 80 157
9 81 181
9 82 209
9 83 25
9 84 246
9 85 78
9 86 27
9 87 173
9 88 266
9 89 119
9 90 81
10 11 107
10 12 120
10 13 75
10 14 6
10 15 48
10 16 128
10 17 63
10 18 69
10 19 190
10 20 256
10 21 115
10 22 195
10 23 148
10 24 107
10 25 72
10 26 183
10 27 65
10 28 207
10 29 164
10 30 255
10 31 234
10 32 187
10 33 109
10 34 248
10 35 161
10 36 223
10 37 168
10 38 35
10 39 78
10 40 112
10 41 43
10 42 7
10 43 224
10 44 158
10 45 163
10 46 16
10 47 125
10 48 115
10 49 241
10 50 144
10 51 150
10 52 41
10 53 268
10 54 88
10 55 269
10 56 175
10 57 73
10 58 226
10 59 80
10 60 132
10 61 61
10 62 266
10 63 121
10 64 259
10 65 116
10 66 12
10 67 65
10 68 7
10 69 101
10 70 265
10 71 178
10 72 128
10 73 184
10 74 126
10 75 17
10 76 211
10 77 144
10 78 237
10 79 5
10 80 101
10 81 236
10 82 234
10 83 136
10 84 139
10 85 47
10 86 147
10 87 53
10 88 68
10 89 212
10 90 28
11 12 123
11 13 62
11 14 206
11 15 45
11 16 167
11 17 116
11 18 87
11 19 147
11 20 84
11 21 189
11 22 12
11 23 210
11 24 161
11 25 192
11 26 86
11 27 221
11 28 88
11 29 231
11 30 46
11 31 231
11 32 58
11 33 254
11 34 15
11 35 62
11 36 166
11 37 245
11 38 235
11 39 214
11 40 39
11 41 33
11 42 53
11 43 214
11 44 20
11 45 5
11 46 259
11 47 203
11 48 97
11 49 208
11 50 226
11 51 225
11 52 87
11 53 54
11 54 177
11 55 212
11 56 243
11 57 247
11 58 133
11 59 248
11 60 130
11 61 264
11 62 25
11 63 244
11 64 226
11 65 86
11 66 159
11 67 81
11 68 79
11 69 114
11 70 38
11 71 134
11 72 73
11 73 97
11 74 29
11 75 180
11 76 90
11 77 113
11 78 256
11 79 130
11 80 79
11 81 76
11 82 160
11 83 89
11 84 20
11 85 146
11 86 48
11 87 135
11 88 62
11 89 13
11 90 101
12 13 101
12 14 21
12 15 35
12 16 171
12 17 233
12 18 171
12 19 264
12 20 153
12 21 144
12 22 127
12 23 80
12 24 24
12 25 188
12 26 210
12 27 49
12 28 137
12 29 150
12 30 222
12 31 244
12 32 248
12 33 104
12 34 14
12 35 222
12 36 161
12 37 210
12 38 259
12 39 218
12 40 151
12 41 172
12 42 251
12 43 116
12 44 63
12 45 16
12 46 39
12 47 240
12 48 82
12 49 167
12 50 106
12 51 69
12 52 63
12 53 12
12 54 92
12 55 90
12 56 14
12 57 152
12 58 214
12 59 238
12 60 112
12 61 107
12 62 173
12 63 146
12 64 198
12 65 176
12 66 113
12 67 172
12 68 142
12 69 161
12 70 92
12 71 11
12 72 29
12 73 245
12 74 186
12 75 24
12 76 182
12 77 241
12 78 257
12 79 187
12 80 136
12 81 160
12 82 87
12 83 123
12 84 248
12 85 6
12 86 81
12 87 251
12 88 74
12 89 65
12 90 239
13 14 126
13 15 248
13 16 80
13 17 177
13 18 153
13 19 171
13 20 47
13 21 116
13 22 178
13 23 26
13 24 49
13 25 80
13 26 9
13 27 96
13 28 126
13 29 179
13 30 56
13 31 99
13 32 73
13 33 41
13 34 31
13 35 140
13 36 255
13 37 177
13 38 144
13 39 88
13 40 179
13 41 30
13 42 162
13 43 55
13 44 193
13 45 249
13 46 194
13 47 64
13 48 136
13 49 140
13 50 23
13 51 75
13 52 187
13 53 158
13 54 147
13 55 138
13 56 12
13 57 211
13 58 39
13 59 27
13 60 149
13 61 236
13 62 113
13 63 29
13 64 218
13 65 133
13 66 224
13 67 137
13 68 76
13 69 235
13 70 156
13 71 186
13 72 239
13 73 152
13 74 68
13 75 151
13 76 37
13 77 163
13 78 204
13 79 29
13 80 80
13 81 121
13 82 206
13 83 263
13 84 257
13 85 226
13 86 86
13 87 94
13 88 58
13 89 122
13 90 240
14 15 266
14 16 54
14 17 81
14 18 8
14 19 257
14 20 50
14 21 133
14 22 116
14 23 152
14 24 10
14 25 26
14 26 97
14 27 248
14 28 153
14 29 96
14 30 151
14 31 62
14 32 147
14 33 125
14 34 17
14 35 126
14 36 59
14 37 100
14 38 187
14 39 46
14 40 151
14 41 263
14 42 264
14 43 142
14 44 141
14 45 151
14 46 267
14 47 125
14 48 3
14 49 60
14 50 267
14 51 123
14 52 219
14 53 91
14 54 85
14 55 136
14 56 212
14 57 267
14 58 193
14 59 51
14 60 6
14 61 238
14 62 26
14 63 29
14 64 93
14 65 170
14 66 232
14 67 122
14 68 191
14 69 263
14 70 244
14 71 269
14 72 68
14 73 39
14 74 174
14 75 24
14 76 105
14 77 204
14 78 104
14 79 53
14 80 157
14 81 147
14 82 107
14 83 216
14 84 82
14 85 146
14 86 104
14 87 263
14 88 140
14 89 130
14 90 238
15 16 18
15 17 15
15 18 30
15 19 224
15 20 207
15 21 190
15 22 171
15 23 64
15 24 259
15 25 146
15 26 189
15 27 227
15 28 267
15 29 55
15 30 69
15 31 198
15 32 142
15 33 222
15 34 14
15 35 29
15 36 68
15 37 45
15 38 185
15 39 200
15 40 210
15 41 76
15 42 182
15 43 5
15 44 107
15 45 116
15 46 30
15 47 149
15 48 175
15 49 206
15 50 198
15 51 46
15 52 257
15 53 234
15 54 184
15 55 264
15 56 24
15 57 82
15 58 138
15 59 122
15 60 186
15 61 187
15 62 65
15 63 44
15 64 178
15 65 252
15 66 147
15 67 52
15 68 133
15 69 14
15 70 256
15 71 176
15 72 23
15 73 55
15 74 14
15 75 50
15 76 128
15 77 118
15 78 175
15 79 256
15 80 15
15 81 156
15 82 18
15 83 236
15 84 129
15 85 218
15 86 212
15 87 97
15 88 29
15 89 93
15 90 214
16 17 212
16 18 5
16 19 141
16 20 163
16 21 259
16 22 15
16 23 32
16 24 102
16 25 257
16 26 158
16 27 156
16 28 216
16 29 215
16 30 43
16 31 15
16 32 75
16 33 177
16 34 4
16 35 37
16 36 35
16 37 114
16 38 181
16 39 257
16 40 145
16 41 12
16 42 19
16 43 109
16 44 2
16 45 31
16 46 200
16 47 159
16 48 216
16 49 136
16 50 262
16 51 57
16 52 250
16 53 198
16 54 115
16 55 141
16 56 256
16 57 82
16 58 101
16 59 261
16 60 85
16 61 127
16 62 243
16 63 113
16 64 202
16 65 254
16 66 173
16 67 100
16 68 12
16 69 159
16 70 162
16 71 63
16 72 56
16 73 103
16 74 75
16 75 190
16 76 224
16 77 139
16 78 263
16 79 34
16 80 152
16 81 240
16 82 131
16 83 51
16 84 204
16 85 47
16 86 46
16 87 177
16 88 101
16 89 35
16 90 107
17 18 135
17 19 159
17 20 208
17 21 184
17 22 70
17 23 186
17 24 52
17 25 67
17 26 63
17 27 179
17 28 16
17 29 106
17 30 107
17 31 185
17 32 145
17 33 25
17 34 155
17 35 250
17 36 202
17 37 269
17 38 166
17 39 105
17 40 45
17 41 35
17 42 8
17 43 192
17 44 227
17 45 102
17 46 264
17 47 123
17 48 206
17 49 115
17 50 60
17 51 110
17 52 170
17 53 62
17 54 238
17 55 119
17 56 261
17 57 101
17 58 101
17 59 238
17 60 38
17 61 25
17 62 230
17 63 5
17 64 97
17 65 228
17 66 177
17 67 42
17 68 224
17 69 39
17 70 149
17 71 203
17 72 107
17 73 121
17 74 85
17 75 106
17 76 26
17 77 116
17 78 197
17 79 234
17 80 190
17 81 92
17 82 43
17 83 240
17 84 107
17 85 39
17 86 49
17 87 198
17 88 53
17 89 251
17 90 135
18 19 98
18 20 77
18 21 203
18 22 240
18 23 233
18 24 248
18 25 97
18 26 175
18 27 137
18 28 62
18 29 0
18 30 104
18 31 235
18 32 194
18 33 267
18 34 207
18 35 11
18 36 62
18 37 1
18 38 245
18 39 238
18 40 3
18 41 146
18 42 64
18 43 39
18 44 242
18 45 96
18 46 152
18 47 162
18 48 103
18 49 266
18 50 190
18 51 18
18 52 257
18 53 62
18 54 7
18 55 45
18 56 1
18 57 150
18 58 27
18 59 150
18 60 55
18 61 220
18 62 238
18 63 251
18 64 55
18 65 0
18 66 73
18 67 33
18 68 17
18 69 251
18 70 158
18 71 201
18 72 19
18 73 263
18 74 63
18 75 146
18 76 234
18 77 249
18 78 94
18 79 116
18 80 224
18 81 159
18 82 252
18 83 177
18 84 252
18 85 216
18 86 121
18 87 17
18 88 0
18 89 1
18 90 197
19 20 226
19 21 238
19 22 168
19 23 161
19 24 87
19 25 165
19 26 57
19 27 60
19 28 269
19 29 10
19 30 147
19 31 163
19 32 188
19 33 142
19 34 32
19 35 1
19 36 152
19 37 3
19 38 166
19 39 207
19 40 77
19 41 78
19 42 188
19 43 79
19 44 144
19 45 62
19 46 18
19 47 87
19 48 39
19 49 234
19 50 98
19 51 187
19 52 105
19 53 99
19 54 54
19 55 63
19 56 182
19 57 9
19 58 54
19 59 175
19 60 116
19 61 243
19 62 8
19 63 114
19 64 235
19 65 61
19 66 113
19 67 230
19 68 94
19 69 32
19 70 199
19 71 104
19 72 25
19 73 175
19 74 93
19 75 136
19 76 197
19 77 226
19 78 205
19 79 19
19 80 58
19 81 80
19 82 231
19 83 264
19 84 269
19 85 261
19 86 83
19 87 242
19 88 267
19 89 148
19 90 125
20 21 179
20 22 100
20 23 237
20 24 153
20 25 256
20 26 238
20 27 59
20 28 258
20 29 137
20 30 219
20 31 147
20 32 181
20 33 174
20 34 193
20 35 201
20 36 234
20 37 97
20 38 113
20 39 68
20 40 238
20 41 208
20 42 114
20 43 43
20 44 249
20 45 47
20 46 199
20 47 178
20 48 201
20 49 126
20 50 109
20 51 66
20 52 35
20 53 148
20 54 256
20 55 25
20 56 28
20 57 12
20 58 39
20 59 19
20 60 98
20 61 9
20 62 222
20 63 213
20 64 2
20 65 161
20 66 217
20 67 11
20 68 16
20 69 184
20 70 50
20 71 190
20 72 7
20 73 221
20 74 142
20 75 99
20 76 199
20 77 52
20 78 214
20 79 21
20 80 111
20 81 42
20 82 144
20 83 229
20 84 164
20 85 32
20 86 161
20 87 190
20 88 237
20 89 17
20 90 223
21 22 1
21 23 148
21 24 268
21 25 178
21 26 72
21 27 38
21 28 253
21 29 22
21 30 99
21 31 140
21 32 40
21 33 212
21 34 248
21 35 61
21 36 55
21 37 22
21 38 193
21 39 13
21 40 116
21 41 44
21 42 157
21 43 183
21 44 152
21 45 163
21 46 83
21 47 19
21 48 122
21 49 8
21 50 244
21 51 40
21 52 107
21 53 204
21 54 155
21 55 7
21 56 129
21 57 108
21 58 81
21 59 206
21 60 263
21 61 37
21 62 94
21 63 99
21 64 24
21 65 22
21 66 158
21 67 139
21 68 8
21 69 114
21 70 128
21 71 159
21 72 78
21 73 20
21 74 165
21 75 53
21 76 132
21 77 81
21 78 199
21 79 39
21 80 138
21 81 36
21 82 66
21 83 107
21 84 224
21 85 209
21 86 41
21 87 129
21 88 153
21 89 221
21 90 184
22 23 84
22 24 242
22 25 50
22 26 117
22 27 37
22 28 243
22 29 172
22 30 107
22 31 166
22 32 139
22 33 265
22 34 26
22 35 122
22 36 187
22 37 183
22 38 193
22 39 105
22 40 131
22 41 161
22 42 69
22 43 146
22 44 155
22 45 34
22 46 32
22 47 35
22 48 169
22 49 36
22 50 100
22 51 254
22 52 241
22 53 141
22 54 11
22 55 65
22 56 204
22 57 33
22 58 124
22 59 137
22 60 148
22 61 148
22 62 8
22 63 264
22 64 59
22 65 34
22 66 9
22 67 105
22 68 167
22 69 255
22 70 183
22 71 47
22 72 25
22 73 254
22 74 72
22 75 66
22 76 167
22 77 59
22 78 238
22 79 106
22 80 176
22 81 9
22 82 210
22 83 236
22 84 74
22 85 264
22 86 233
22 87 153
22 88 112
22 89 48
22 90 141
23 24 30
23 25 33
23 26 221
23 27 131
23 28 97
23 29 67
23 30 158
23 31 0
23 32 125
23 33 16
23 34 186
23 35 134
23 36 173
23 37 109
23 38 263
23 39 38
23 40 157
23 41 149
23 42 12
23 43 34
23 44 209
23 45 78
23 46 83
23 47 59
23 48 257
23 49 33
23 50 246
23 51 230
23 52 249
23 53 219
23 54 41
23 55 8
23 56 104
23 57 134
23 58 264
23 59 130
23 60 39
23 61 143
23 62 55
23 63 44
23 64 209
23 65 70
23 66 214
23 67 55
23 68 263
23 69 116
23 70 68
23 71 186
23 72 220
23 73 169
23 74 38
23 75 252
23 76 210
23 77 58
23 78 105
23 79 136
23 80 84
23 81 207
23 82 74
23 83 35
23 84 15
23 85 21
23 86 137
23 87 172
23 88 256
23 89 81
23 90 92
24 25 130
24 26 223
24 27 129
24 28 260
24 29 39
24 30 29
24 31 261
24 32 132
24 33 196
24 34 124
24 35 250
24 36 124
24 37 117
24 38 144
24 39 143
24 40 236
24 41 185
24 42 119
24 43 248
24 44 100
24 45 21
24 46 34
24 47 173
24 48 69
24 49 218
24 50 235
24 51 86
24 52 37
24 53 122
24 54 189
24 55 218
24 56 127
24 57 243
24 58 245
24 59 182
24 60 28
24 61 248
24 62 257
24 63 200
24 64 164
24 65 4
24 66 51
24 67 205
24 68 91
24 69 8
24 70 27
24 71 104
24 72 155
24 73 77
24 74 194
24 75 53
24 76 217
24 77 61
24 78 83
24 79 129
24 80 216
24 81 154
24 82 196
24 83 251
24 84 144
24 85 254
24 86 163
24 87 82
24 88 241
24 89 99
24 90 184
25 26 115
25 27 126
25 28 266
25 29 255
25 30 49
25 31 66
25 32 119
25 33 266
25 34 258
25 35 189
25 36 149
25 37 254
25 38 78
25 39 23
25 40 199
25 41 193
25 42 147
25 43 41
25 44 150
25 45 126
25 46 40
25 47 91
25 48 174
25 49 205
25 50 191
25 51 259
25 52 0
25 53 227
25 54 69
25 55 263
25 56 65
25 57 242
25 58 212
25 59 80
25 60 41
25 61 127
25 62 117
25 63 269
25 64 19
25 65 85
25 66 198
25 67 180
25 68 262
25 69 32
25 70 105
25 71 250
25 72 259
25 73 71
25 74 125
25 75 7
25 76 161
25 77 189
25 78 213
25 79 235
25 80 138
25 81 130
25 82 264
25 83 109
25 84 57
25 85 33
25 86 230
25 87 8
25 88 159
25 89 267
25 90 78
26 27 1
26 28 56
26 29 13
26 30 124
26 31 79
26 32 260
26 33 138
26 34 46
26 35 249
26 36 133
26 37 208
26 38 107
26 39 48
26 40 30
26 41 256
26 42 71
26 43 63
26 44 239
26 45 80
26 46 28
26 47 37
26 48 103
26 49 223
26 50 29
26 51 13
26 52 246
26 53 52
26 54 264
26 55 234
26 56 26
26 57 65
26 58 152
26 59 156
26 60 212
26 61 234
26 62 193
26 63 217
26 64 111
26 65 269
26 66 74
26 67 257
26 68 228
26 69 266
26 70 179
26 71 240
26 72 65
26 73 32
26 74 104
26 75 162
26 76 82
26 77 23
26 78 193
26 79 68
26 80 35
26 81 149
26 82 52
26 83 51
26 84 57
26 85 146
26 86 76
26 87 221
26 88 268
26 89 15
26 90 55
27 28 198
27 29 166
27 30 132
27 31 156
27 32 218
27 33 130
27 34 159
27 35 190
27 36 6
27 37 143
27 38 143
27 39 166
27 40 227
27 41 126
27 42 46
27 43 121
27 44 83
27 45 131
27 46 119
27 47 89
27 48 181
27 49 146
27 50 255
27 51 10
27 52 52
27 53 125
27 54 217
27 55 178
27 56 124
27 57 250
27 58 94
27 59 39
27 60 252
27 61 156
27 62 24
27 63 121
27 64 218
27 65 206
27 66 260
27 67 134
27 68 183
27 69 114
27 70 123
27 71 261
27 72 115
27 73 51
27 74 140
27 75 217
27 76 27
27 77 139
27 78 140
27 79 239
27 80 151
27 81 79
27 82 28
27 83 12
27 84 81
27 85 68
27 86 157
27 87 201
27 88 72
27 89 129
27 90 165
28 29 67
28 30 47
28 31 13
28 32 208
28 33 133
28 34 269
28 35 220
28 36 81
28 37 76
28 38 58
28 39 5
28 40 182
28 41 258
28 42 22
28 43 180
28 44 146
28 45 139
28 46 38
28 47 171
28 48 33
28 49 134
28 50 8
28 51 201
28 52 255
28 53 161
28 54 260
28 55 3
28 56 132
28 57 234
28 58 258
28 59 219
28 60 164
28 61 182
28 62 259
28 63 250
28 64 239
28 65 146
28 66 48
28 67 157
28 68 152
28 69 159
28 70 70
28 71 238
28 72 58
28 73 16
28 74 22
28 75 122
28 76 100
28 77 126
28 78 265
28 79 175
28 80 118
28 81 145
28 82 206
28 83 96
28 84 22
28 85 120
28 86 8
28 87 87
28 88 101
28 89 27
28 90 124
29 30 162
29 31 148
29 32 100
29 33 104
29 34 4
29 35 142
29 36 163
29 37 241
29 38 22
29 39 146
29 40 132
29 41 164
29 42 44
29 43 76
29 44 179
29 45 183
29 46 42
29 47 121
29 48 205
29 49 159
29 50 1
29 51 23
29 52 129
29 53 113
29 54 251
29 55 6
29 56 176
29 57 163
29 58 16
29 59 247
29 60 172
29 61 203
29 62 199
29 63 148
29 64 189
29 65 146
29 66 175
29 67 11
29 68 42
29 69 222
29 70 113
29 71 253
29 72 165
29 73 244
29 74 204
29 75 269
29 76 225
29 77 132
29 78 181
29 79 91
29 80 208
29 81 207
29 82 121
29 83 118
29 84 186
29 85 74
29 86 183
29 87 95
29 88 267
29 89 221
29 90 120
30 31 178
30 32 252
30 33 137
30 34 106
30 35 225
30 36 24
30 37 189
30 38 19
30 39 52
30 40 237
30 41 226
30 42 20
30 43 144
30 44 26
30 45 193
30 46 147
30 47 113
30 48 156
30 49 56
30 50 201
30 51 145
30 52 161
30 53 263
30 54 230
30 55 225
30 56 41
30 57 16
30 58 101
30 59 229
30 60 65
30 61 92
30 62 59
30 63 166
30 64 246
30 65 206
30 66 220
30 67 268
30 68 148
30 69 45
30 70 255
30 71 257
30 72 118
30 73 225
30 74 240
30 75 148
30 76 207
30 77 211
30 78 9
30 79 163
30 80 27
30 81 117
30 82 129
30 83 97
30 84 117
30 85 157
30 86 152
30 87 103
30 88 52
30 89 150
30 90 71
31 32 86
31 33 171
31 34 97
31 35 81
31 36 241
31 37 81
31 38 225
31 39 27
31 40 71
31 41 92
31 42 51
31 43 89
31 44 6
31 45 46
31 46 186
31 47 246
31 48 56
31 49 236
31 50 148
31 51 240
31 52 173
31 53 142
31 54 206
31 55 216
31 56 137
31 57 259
31 58 29
31 59 148
31 60 95
31 61 18
31 62 18
31 63 19
31 64 75
31 65 128
31 66 9
31 67 82
31 68 94
31 69 185
31 70 54
31 71 138
31 72 29
31 73 83
31 74 52
31 75 233
31 76 63
31 77 39
31 78 26
31 79 90
31 80 222
31 81 125
31 82 46
31 83 122
31 84 231
31 85 214
31 86 72
31 87 256
31 88 178
31 89 8
31 90 117
32 33 188
32 34 123
32 35 203
32 36 222
32 37 188
32 38 208
32 39 44
32 40 188
32 41 263
32 42 174
32 43 9
32 44 29
32 45 195
32 46 173
32 47 19
32 48 210
32 49 97
32 50 104
32 51 157
32 52 268
32 53 155
32 54 77
32 55 177
32 56 7
32 57 115
32 58 268
32 59 82
32 60 203
32 61 49
32 62 243
32 63 133
32 64 138
32 65 141
32 66 249
32 67 189
32 68 41
32 69 62
32 70 156
32 71 244
32 72 232
32 73 129
32 74 46
32 75 173
32 76 101
32 77 137
32 78 191
32 79 104
32 80 129
32 81 74
32 82 51
32 83 151
32 84 15
32 85 180
32 86 160
32 87 127
32 88 161
32 89 33
32 90 197
33 34 10
33 35 122
33 36 57
33 37 93
33 38 264
33 39 153
33 40 205
33 41 85
33 42 240
33 43 7
33 44 134
33 45 61
33 46 52
33 47 142
33 48 148
33 49 30
33 50 128
33 51 128
33 52 76
33 53 163
33 54 236
33 55 223
33 56 163
33 57 111
33 58 103
33 59 268
33 60 121
33 61 26
33 62 51
33 63 211
33 64 53
33 65 200
33 66 35
33 67 224
33 68 202
33 69 89
33 70 162
33 71 248
33 72 12
33 73 137
33 74 125
33 75 92
33 76 25
33 77 85
33 78 203
33 79 146
33 80 228
33 81 181
33 82 94
33 83 154
33 84 7
33 85 96
33 86 225
33 87 131
33 88 238
33 89 119
33 90 41
34 35 149
34 36 17
34 37 147
34 38 134
34 39 16
34 40 215
34 41 66
34 42 170
34 43 57
34 44 254
34 45 195
34 46 124
34 47 9
34 48 50
34 49 81
34 50 23
34 51 225
34 52 3
34 53 105
34 54 244
34 55 107
34 56 128
34 57 2
34 58 188
34 59 72
34 60 167
34 61 101
34 62 61
34 63 241
34 64 258
34 65 64
34 66 262
34 67 234
34 68 202
34 69 161
34 70 13
34 71 89
34 72 108
34 73 70
34 74 54
34 75 17
34 76 113
34 77 169
34 78 182
34 79 213
34 80 118
34 81 246
34 82 15
34 83 247
34 84 27
34 85 180
34 86 8
34 87 204
34 88 195
34 89 165
34 90 115
35 36 178
35 37 216
35 38 215
35 39 26
35 40 59
35 41 123
35 42 243
35 43 173
35 44 186
35 45 74
35 46 217
35 47 103
35 48 45
35 49 227
35 50 50
35 51 63
35 52 62
35 53 167
35 54 141
35 55 76
35 56 173
35 57 120
35 58 202
35 59 234
35 60 172
35 61 265
35 62 33
35 63 149
35 64 102
35 65 192
35 66 243
35 67 259
35 68 267
35 69 114
35 70 171
35 71 30
35 72 188
35 73 221
35 74 105
35 75 18
35 76 137
35 77 261
35 78 114
35 79 130
35 80 245
35 81 34
35 82 213
35 83 84
35 84 4
35 85 116
35 86 52
35 87 251
35 88 146
35 89 132
35 90 37
36 37 216
36 38 210
36 39 137
36 40 116
36 41 34
36 42 10
36 43 222
36 44 173
36 45 135
36 46 126
36 47 126
36 48 232
36 49 171
36 50 217
36 51 236
36 52 114
36 53 152
36 54 155
36 55 220
36 56 195
36 57 85
36 58 89
36 59 242
36 60 246
36 61 122
36 62 264
36 63 96
36 64 73
36 65 80
36 66 115
36 67 50
36 68 65
36 69 3
36 70 118
36 71 25
36 72 253
36 73 13
36 74 20
36 75 9
36 76 37
36 77 88
36 78 237
36 79 63
36 80 246
36 81 256
36 82 97
36 83 31
36 84 54
36 85 48
36 86 88
36 87 46
36 88 264
36 89 66
36 90 198
37 38 242
37 39 81
37 40 216
37 41 253
37 42 211
37 43 33
37 44 189
37 45 250
37 46 210
37 47 122
37 48 42
37 49 201
37 50 100
37 51 158
37 52 160
37 53 241
37 54 54
37 55 15
37 56 109
37 57 110
37 58 156
37 59 253
37 60 50
37 61 35
37 62 81
37 63 168
37 64 124
37 65 225
37 66 35
37 67 124
37 68 136
37 69 238
37 70 110
37 71 122
37 72 209
37 73 9
37 74 42
37 75 37
37 76 52
37 77 85
37 78 199
37 79 236
37 80 136
37 81 134
37 82 177
37 83 163
37 84 37
37 85 233
37 86 174
37 87 78
37 88 90
37 89 95
37 90 143
38 39 79
38 40 240
38 41 83
38 42 211
38 43 70
38 44 232
38 45 132
38 46 63
38 47 30
38 48 14
38 49 31
38 50 29
38 51 105
38 52 133
38 53 117
38 54 9
38 55 160
38 56 208
38 57 87
38 58 136
38 59 260
38 60 151
38 61 60
38 62 15
38 63 20
38 64 221
38 65 33
38 66 263
38 67 189
38 68 252
38 69 72
38 70 77
38 71 83
38 72 153
38 73 235
38 74 201
38 75 102
38 76 88
38 77 161
38 78 100
38 79 264
38 80 229
38 81 194
38 82 22
38 83 192
38 84 193
38 85 241
38 86 244
38 87 55
38 88 266
38 89 70
38 90 202
39 40 214
39 41 185
39 42 90
39 43 189
39 44 157
39 45 90
39 46 4
39 47 7
39 48 59
39 49 72
39 50 268
39 51 247
39 52 118
39 53 247
39 54 237
39 55 93
39 56 90
39 57 122
39 58 130
39 59 149
39 60 135
39 61 262
39 62 196
39 63 264
39 64 119
39 65 114
39 66 260
39 67 190
39 68 254
39 69 28
39 70 181
39 71 211
39 72 182
39 73 139
39 74 114
39 75 27
39 76 211
39 77 214
39 78 18
39 79 7
39 80 83
39 81 180
39 82 137
39 83 69
39 84 144
39 85 169
39 86 255
39 87 174
39 88 149
39 89 18
39 90 126
40 41 203
40 42 38
40 43 12
40 44 240
40 45 62
40 46 250
40 47 75
40 48 117
40 49 5
40 50 183
40 51 101
40 52 54
40 53 186
40 54 14
40 55 213
40 56 258
40 57 96
40 58 106
40 59 43
40 60 247
40 61 22
40 62 171
40 63 84
40 64 14
40 65 66
40 66 190
40 67 269
40 68 261
40 69 178
40 70 234
40 71 56
40 72 33
40 73 20
40 74 85
40 75 13
40 76 25
40 77 93
40 78 73
40 79 56
40 80 13
40 81 160
40 82 171
40 83 213
40 84 92
40 85 238
40 86 138
40 87 236
40 88 120
40 89 101
40 90 70
41 42 111
41 43 234
41 44 52
41 45 67
41 46 234
41 47 21
41 48 195
41 49 4
41 50 214
41 51 182
41 52 121
41 53 106
41 54 28
41 55 134
41 56 110
41 57 56
41 58 158
41 59 207
41 60 46
41 61 27
41 62 201
41 63 167
41 64 129
41 65 3
41 66 24
41 67 38
41 68 121
41 69 229
41 70 143
41 71 178
41 72 149
41 73 232
41 74 70
41 75 255
41 76 120
41 77 225
41 78 142
41 79 194
41 80 109
41 81 67
41 82 191
41 83 256
41 84 267
41 85 92
41 86 94
41 87 207
41 88 102
41 89 257
41 90 13
42 43 24
42 44 219
42 45 166
42 46 233
42 47 224
42 48 264
42 49 47
42 50 268
42 51 26
42 52 31
42 53 241
42 54 46
42 55 88
42 56 119
42 57 155
42 58 59
42 59 203
42 60 130
42 61 230
42 62 212
42 63 268
42 64 80
42 65 219
42 66 167
42 67 149
42 68 201
42 69 38
42 70 21
42 71 76
42 72 122
42 73 119
42 74 202
42 75 35
42 76 107
42 77 65
42 78 163
42 79 163
42 80 264
42 81 268
42 82 88
42 83 173
42 84 64
42 85 219
42 86 236
42 87 37
42 88 194
42 89 226
42 90 246
43 44 206
43 45 204
43 46 188
43 47 42
43 48 48
43 49 258
43 50 184
43 51 254
43 52 247
43 53 183
43 54 125
43 55 20
43 56 179
43 57 133
43 58 260
43 59 145
43 60 102
43 61 59
43 62 105
43 63 84
43 64 211
43 65 241
43 66 80
43 67 84
43 68 196
43 69 262
43 70 168
43 71 23
43 72 262
43 73 207
43 74 245
43 75 33
43 76 30
43 77 0
43 78 48
43 79 186
43 80 138
43 81 147
43 82 254
43 83 140
43 84 107
43 85 39
43 86 15
43 87 187
43 88 91
43 89 153
43 90 123
44 45 101
44 46 93
44 47 5
44 48 27
44 49 251
44 50 23
44 51 177
44 52 97
44 53 215
44 54 243
44 55 24
44 56 71
44 57 238
44 58 184
44 59 267
44 60 261
44 61 208
44 62 80
44 63 240
44 64 99
44 65 90
44 66 162
44 67 256
44 68 142
44 69 2
44 70 146
44 71 81
44 72 87
44 73 213
44 74 38
44 75 263
44 76 66
44 77 161
44 78 23
44 79 154
44 80 261
44 81 226
44 82 93
44 83 214
44 84 7
44 85 158
44 86 224
44 87 115
44 88 31
44 89 117
44 90 227
45 46 172
45 47 244
45 48 43
45 49 68
45 50 189
45 51 237
45 52 141
45 53 29
45 54 192
45 55 235
45 56 147
45 57 168
45 58 58
45 59 61
45 60 249
45 61 150
45 62 96
45 63 59
45 64 242
45 65 208
45 66 151
45 67 209
45 68 257
45 69 23
45 70 132
45 71 39
45 72 108
45 73 35
45 74 14
45 75 164
45 76 204
45 77 202
45 78 259
45 79 162
45 80 17
45 81 41
45 82 85
45 83 253
45 84 167
45 85 212
45 86 52
45 87 187
45 88 119
45 89 70
45 90 20
46 47 181
46 48 99
46 49 3
46 50 11
46 51 167
46 52 92
46 53 51
46 54 61
46 55 173
46 56 246
46 57 184
46 58 122
46 59 143
46 60 223
46 61 15
46 62 251
46 63 181
46 64 66
46 65 17
46 66 169
46 67 9
46 68 124
46 69 215
46 70 199
46 71 148
46 72 205
46 73 212
46 74 221
46 75 16
46 76 139
46 77 146
46 78 31
46 79 100
46 80 104
46 81 88
46 82 250
46 83 15
46 84 259
46 85 216
46 86 228
46 87 137
46 88 25
46 89 26
46 90 196
47 48 103
47 49 182
47 50 227
47 51 233
47 52 15
47 53 90
47 54 18
47 55 27
47 56 61
47 57 138
47 58 212
47 59 9
47 60 24
47 61 200
47 62 212
47 63 262
47 64 33
47 65 100
47 66 257
47 67 117
47 68 106
47 69 72
47 70 35
47 71 124
47 72 93
47 73 77
47 74 202
47 75 180
47 76 47
47 77 33
47 78 267
47 79 65
47 80 166
47 81 179
47 82 232
47 83 96
47 84 170
47 85 75
47 86 184
47 87 257
47 88 37
47 89 208
47 90 216
48 49 223
48 50 29
48 51 18
48 52 188
48 53 169
48 54 141
48 55 173
48 56 58
48 57 50
48 58 159
48 59 196
48 60 92
48 61 34
48 62 207
48 63 67
48 64 189
48 65 187
48 66 259
48 67 109
48 68 226
48 69 214
48 70 29
48 71 118
48 72 181
48 73 84
48 74 14
48 75 33
48 76 20
48 77 132
48 78 168
48 79 268
48 80 101
48 81 126
48 82 214
48 83 146
48 84 188
48 85 68
48 86 175
48 87 152
48 88 159
48 89 204
48 90 63
49 50 200
49 51 90
49 52 74
49 53 261
49 54 110
49 55 185
49 56 139
49 57 12
49 58 106
49 59 134
49 60 50
49 61 229
49 62 99
49 63 256
49 64 188
49 65 186
49 66 232
49 67 194
49 68 237
49 69 179
49 70 32
49 71 41
49 72 130
49 73 167
49 74 54
49 75 1
49 76 183
49 77 61
49 78 101
49 79 204
49 80 129
49 81 126
49 82 47
49 83 159
49 84 253
49 85 120
49 86 33
49 87 201
49 88 53
49 89 21
49 90 171
50 51 158
50 52 247
50 53 205
50 54 150
50 55 45
50 56 92
50 57 152
50 58 130
50 59 51
50 60 230
50 61 19
50 62 85
50 63 18
50 64 27
50 65 266
50 66 129
50 67 217
50 68 58
50 69 260
50 70 243
50 71 71
50 72 59
50 73 54
50 74 198
50 75 179
50 76 132
50 77 39
50 78 39
50 79 84
50 80 151
50 81 7
50 82 88
50 83 138
50 84 41
50 85 127
50 86 139
50 87 60
50 88 126
50 89 85
50 90 259
51 52 70
51 53 254
51 54 114
51 55 146
51 56 229
51 57 131
51 58 203
51 59 228
51 60 252
51 61 252
51 62 234
51 63 120
51 64 122
51 65 2
51 66 86
51 67 10
51 68 20
51 69 189
51 70 144
51 71 227
51 72 33
51 73 186
51 74 34
51 75 74
51 76 144
51 77 143
51 78 84
51 79 189
51 80 90
51 81 263
51 82 219
51 83 213
51 84 228
51 85 203
51 86 11
51 87 179
51 88 169
51 89 244
51 90 18
52 53 218
52 54 253
52 55 130
52 56 121
52 57 217
52 58 237
52 59 87
52 60 200
52 61 202
52 62 16
52 63 111
52 64 39
52 65 61
52 66 66
52 67 2
52 68 218
52 69 217
52 70 246
52 71 177
52 72 112
52 73 74
52 74 52
52 75 263
52 76 208
52 77 88
52 78 14
52 79 52
52 80 104
52 81 189
52 82 120
52 83 222
52 84 221
52 85 76
52 86 196
52 87 172
52 88 158
52 89 269
52 90 252
53 54 244
53 55 187
53 56 67
53 57 210
53 58 224
53 59 263
53 60 235
53 61 244
53 62 32
53 63 231
53 64 136
53 65 77
53 66 93
53 67 202
53 68 126
53 69 128
53 70 104
53 71 152
53 72 40
53 73 75
53 74 229
53 75 236
53 76 98
53 77 241
53 78 40
53 79 198
53 80 260
53 81 79
53 82 129
53 83 167
53 84 177
53 85 258
53 86 75
53 87 155
53 88 1
53 89 109
53 90 68
54 55 190
54 56 10
54 57 209
54 58 46
54 59 198
54 60 18
54 61 143
54 62 61
54 63 168
54 64 259
54 65 100
54 66 243
54 67 10
54 68 84
54 69 98
54 70 178
54 71 159
54 72 123
54 73 188
54 74 87
54 75 44
54 76 204
54 77 73
54 78 206
54 79 187
54 80 31
54 81 57
54 82 252
54 83 131
54 84 238
54 85 239
54 86 263
54 87 115
54 88 84
54 89 252
54 90 50
55 56 76
55 57 164
55 58 22
55 59 229
55 60 264
55 61 103
55 62 113
55 63 105
55 64 144
55 65 101
55 66 129
55 67 249
55 68 154
55 69 50
55 70 167
55 71 138
55 72 258
55 73 41
55 74 7
55 75 205
55 76 198
55 77 136
55 78 259
55 79 100
55 80 93
55 81 28
55 82 154
55 83 156
55 84 100
55 85 42
55 86 66
55 87 77
55 88 218
55 89 114
55 90 262
56 57 97
56 58 267
56 59 27
56 60 134
56 61 8
56 62 227
56 63 48
56 64 134
56 65 146
56 66 152
56 67 84
56 68 95
56 69 122
56 70 230
56 71 268
56 72 23
56 73 265
56 74 11
56 75 82
56 76 198
56 77 221
56 78 206
56 79 258
56 80 122
56 81 164
56 82 106
56 83 127
56 84 181
56 85 2
56 86 25
56 87 226
56 88 26
56 89 103
56 90 160
57 58 140
57 59 192
57 60 64
57 61 163
57 62 112
57 63 238
57 64 203
57 65 88
57 66 134
57 67 72
57 68 102
57 69 130
57 70 264
57 71 259
57 72 14
57 73 15
57 74 48
57 75 64
57 76 216
57 77 112
57 78 97
57 79 107
57 80 212
57 81 27
57 82 243
57 83 153
57 84 217
57 85 168
57 86 227
57 87 119
57 88 98
57 89 118
57 90 25
58 59 9
58 60 53
58 61 143
58 62 10
58 63 95
58 64 98
58 65 140
58 66 200
58 67 263
58 68 144
58 69 8
58 70 203
58 71 263
58 72 71
58 73 154
58 74 237
58 75 220
58 76 140
58 77 128
58 78 54
58 79 224
58 80 158
58 81 132
58 82 209
58 83 181
58 84 267
58 85 127
58 86 139
58 87 139
58 88 83
58 89 179
58 90 201
59 60 235
59 61 179
59 62 56
59 63 115
59 64 10
59 65 186
59 66 85
59 67 165
59 68 217
59 69 169
59 70 11
59 71 59
59 72 76
59 73 236
59 74 201
59 75 87
59 76 151
59 77 37
59 78 125
59 79 225
59 80 29
59 81 155
59 82 82
59 83 42
59 84 172
59 85 190
59 86 6
59 87 122
59 88 170
59 89 48
59 90 33
60 61 2
60 62 110
60 63 98
60 64 175
60 65 11
60 66 158
60 67 15
60 68 17
60 69 194
60 70 134
60 71 2
60 72 229
60 73 25
60 74 47
60 75 187
60 76 107
60 77 219
60 78 212
60 79 236
60 80 145
60 81 66
60 82 140
60 83 269
60 84 207
60 85 199
60 86 22
60 87 6
60 88 130
60 89 91
60 90 121
61 62 262
61 63 52
61 64 153
61 65 154
61 66 5
61 67 250
61 68 107
61 69 108
61 70 126
61 71 104
61 72 24
61 73 179
61 74 37
61 75 172
61 76 128
61 77 109
61 78 91
61 79 51
61 80 142
61 81 98
61 82 25
61 83 198
61 84 79
61 85 259
61 86 41
61 87 104
61 88 196
61 89 32
61 90 61
62 63 42
62 64 47
62 65 3
62 66 256
62 67 111
62 68 174
62 69 53
62 70 249
62 71 161
62 72 249
62 73 218
62 74 183
62 75 231
62 76 152
62 77 134
62 78 133
62 79 8
62 80 240
62 81 216
62 82 166
62 83 208
62 84 226
62 85 255
62 86 149
62 87 81
62 88 102
62 89 238
62 90 114
63 64 72
63 65 263
63 66 168
63 67 40
63 68 51
63 69 247
63 70 61
63 71 31
63 72 232
63 73 28
63 74 106
63 75 83
63 76 163
63 77 108
63 78 75
63 79 113
63 80 136
63 81 251
63 82 34
63 83 174
63 84 202
63 85 98
63 86 118
63 87 179
63 88 18
63 89 148
63 90 168
64 65 118
64 66 187
64 67 88
64 68 4
64 69 52
64 70 46
64 71 210
64 72 159
64 73 135
64 74 22
64 75 104
64 76 99
64 77 102
64 78 162
64 79 185
64 80 69
64 81 5
64 82 175
64 83 187
64 84 26
64 85 242
64 86 83
64 87 109
64 88 159
64 89 5
64 90 28
65 66 128
65 67 96
65 68 197
65 69 111
65 70 202
65 71 161
65 72 222
65 73 141
65 74 259
65 75 229
65 76 76
65 77 189
65 78 225
65 79 108
65 80 163
65 81 139
65 82 106
65 83 26
65 84 183
65 85 77
65 86 143
65 87 46
65 88 17
65 89 97
65 90 199
66 67 90
66 68 169
66 69 168
66 70 135
66 71 5
66 72 191
66 73 229
66 74 120
66 75 149
66 76 69
66 77 60
66 78 98
66 79 32
66 80 175
66 81 197
66 82 86
66 83 197
66 84 69
66 85 158
66 86 244
66 87 170
66 88 126
66 89 103
66 90 210
67 68 100
67 69 197
67 70 230
67 71 128
67 72 6
67 73 149
67 74 265
67 75 119
67 76 86
67 77 137
67 78 140
67 79 79
67 80 15
67 81 26
67 82 220
67 83 255
67 84 16
67 85 95
67 86 174
67 87 127
67 88 25
67 89 85
67 90 98
68 69 152
68 70 48
68 71 130
68 72 235
68 73 55
68 74 225
68 75 244
68 76 222
68 77 73
68 78 238
68 79 56
68 80 93
68 81 225
68 82 79
68 83 151
68 84 227
68 85 64
68 86 256
68 87 165
68 88 20
68 89 243
68 90 4
69 70 245
69 71 80
69 72 223
69 73 267
69 74 55
69 75 194
69 76 204
69 77 145
69 78 147
69 79 125
69 80 88
69 81 153
69 82 55
69 83 114
69 84 246
69 85 186
69 86 159
69 87 166
69 88 215
69 89 52
69 90 233
70 71 15
70 72 99
70 73 146
70 74 100
70 75 17
70 76 221
70 77 163
70 78 55
70 79 160
70 80 179
70 81 80
70 82 164
70 83 127
70 84 16
70 85 204
70 86 227
70 87 58
70 88 128
70 89 42
70 90 44
71 72 151
71 73 74
71 74 218
71 75 161
71 76 234
71 77 257
71 78 200
71 79 200
71 80 132
71 81 25
71 82 167
71 83 125
71 84 186
71 85 234
71 86 134
71 87 234
71 88 136
71 89 251
71 90 110
72 73 68
72 74 88
72 75 25
72 76 65
72 77 64
72 78 19
72 79 23
72 80 181
72 81 199
72 82 19
72 83 6
72 84 77
72 85 82
72 86 52
72 87 78
72 88 102
72 89 131
72 90 49
73 74 72
73 75 96
73 76 77
73 77 226
73 78 5
73 79 102
73 80 1
73 81 154
73 82 15
73 83 133
73 84 17
73 85 177
73 86 268
73 87 188
73 88 113
73 89 199
73 90 216
74 75 8
74 76 257
74 77 158
74 78 62
74 79 36
74 80 194
74 81 252
74 82 185
74 83 23
74 84 163
74 85 150
74 86 64
74 87 97
74 88 82
74 89 250
74 90 56
75 76 206
75 77 84
75 78 52
75 79 193
75 80 10
75 81 96
75 82 237
75 83 157
75 84 137
75 85 147
75 86 60
75 87 254
75 88 207
75 89 185
75 90 198
76 77 120
76 78 210
76 79 89
76 80 138
76 81 13
76 82 150
76 83 268
76 84 137
76 85 204
76 86 177
76 87 156
76 88 54
76 89 74
76 90 39
77 78 68
77 79 25
77 80 241
77 81 251
77 82 266
77 83 206
77 84 0
77 85 44
77 86 12
77 87 109
77 88 150
77 89 159
77 90 12
78 79 174
78 80 5
78 81 29
78 82 82
78 83 269
78 84 260
78 85 115
78 86 73
78 87 24
78 88 202
78 89 86
78 90 20
79 80 109
79 81 179
79 82 97
79 83 88
79 84 44
79 85 73
79 86 170
79 87 22
79 88 259
79 89 268
79 90 248
80 81 62
80 82 27
80 83 116
80 84 211
80 85 23
80 86 94
80 87 159
80 88 147
80 89 266
80 90 79
81 82 263
81 83 53
81 84 231
81 85 263
81 86 176
81 87 8
81 88 107
81 89 257
81 90 7
82 83 213
82 84 182
82 85 77
82 86 19
82 87 245
82 88 49
82 89 121
82 90 265
83 84 104
83 85 55
83 86 125
83 87 133
83 88 205
83 89 46
83 90 155
84 85 210
84 86 74
84 87 228
84 88 71
84 89 186
84 90 152
85 86 195
85 87 201
85 88 40
85 89 113
85 90 82
86 87 249
86 88 203
86 89 12
86 90 221
87 88 159
87 89 174
87 90 217
88 89 163
88 90 145
89 90 13
